Traveling Salesman Problem/TSP_generados/Aleatorio1621103357_11.tsp
NAME: Aleatorio1621103357_11.tsp
COMMENT: Randomly generated scenario
TYPE: TSP
DIMENSION: 11
EDGE_WEIGHT_TYPE: ATT
NODE_COORD_SECTION
1 20.13 34.49
2 10.34 26.31
3 12.72 15.74
4 48.57 47.77
5 9.04 49.66
6 20.85 33.95
7 48.11 40.99
8 12.99 10.89
9 11.36 33.7
10 39.45 21.99
11 48.55 30.31
