Traveling Salesman Problem/TSP_generados/Aleatorio1621103357_11.opt.tour
NAME: Aleatorio1621103357_11.opt.tour
COMMENT: Optimal solution for Aleatorio1621103357_11 (148.45410445931088)
TYPE: TOUR
DIMENSION: 11
TOUR_SECTION
1 5 9 2 3 8 10 11 7 4 6
-1
EOF
